TiO2-Anatase-Au9-P2                     
   1.00000000000000     
    20.4198307499999991   -7.5519999999999996    0.0000000000000030
     0.0000000000000000   15.1039999999999992    0.0000000000000000
     0.0000000000000000    0.0000000000000000   30.8447771999999993
   O    Ti   Au
   128    64     9
Direct
  0.1047642330921121  0.1772149884187186  0.0463020174688751
  0.1829788287675527  0.2160515279173225  0.1700505223243169
  0.9982891365812918  0.9990010642428544  0.0785513702325957
  0.0807362035750714  0.0398096897598421  0.1913312460527408
  0.1763691511947769  0.0882463723173998  0.0209576760072494
  0.0044036913711949  0.1269105519925731  0.1445524214508822
  0.0286310624242887  0.0143130542536483  0.9992668498205717
  0.1109320129778268  0.0552801940986427  0.1120686085357434
  0.3551742130839273  0.1776021430793406  0.0460751874996532
  0.4340149769057149  0.2161189452143333  0.1690512032341758
  0.2482816562165482  0.9992660461582261  0.0785127794694844
  0.3315433936843561  0.0400907184285231  0.1908068253540876
  0.4253081356470574  0.0878480477576389  0.0184917968826070
  0.2546987776618224  0.1270694458133192  0.1450556527723421
  0.2780875662361311  0.0142493670678547  0.9990670607230854
  0.3607358114951111  0.0550119364337007  0.1113997297839120
  0.6042786816949715  0.1771553176747958  0.0431304306538181
  0.6822605319207327  0.2160347934715929  0.1676089902228171
  0.4982536609829822  0.9993290152409600  0.0756678791960752
  0.5804448325359033  0.0404024387950201  0.1885084686714649
  0.6767577007954770  0.0884214518545292  0.0193208386686834
  0.5040871708021797  0.1269815739036275  0.1411414352737523
  0.5278102757853773  0.0139909126908790  0.9963874289859191
  0.6109700741692592  0.0555717070705413  0.1091688017656907
  0.8547688158335447  0.1772381897075874  0.0457189591439189
  0.9325993103673724  0.2160165158631955  0.1693962888929761
  0.7480681682813923  0.9990249424666828  0.0776334052272389
  0.8304316191161618  0.0399098161741449  0.1906213422629577
  0.9265012211715771  0.0881641992645825  0.0205740990284653
  0.7546795312495007  0.1273161156546578  0.1433816057016770
  0.7788659054171205  0.0144479019787909  0.9984437067567455
  0.8608911490164033  0.0552161618868539  0.1113594209897002
  0.1046617681203017  0.4270294281845750  0.0462988960991524
  0.1828121447521625  0.4660798056649469  0.1696576725897287
  0.9982715511830875  0.2488855737234630  0.0785998943949764
  0.0807148100714699  0.2901277883911249  0.1913292754097995
  0.1762383971540871  0.3378412453843467  0.0208908145848739
  0.0044187929815180  0.3769637983465799  0.1444859472499758
  0.0285856004873253  0.2640309922973074  0.9992667992249764
  0.1108799110213354  0.3048348896809401  0.1120451960724296
  0.3555396531264279  0.4277494076848853  0.0467859422834920
  0.4323184910555682  0.4670308982858913  0.1642579467984007
  0.2481724566405461  0.2490412710081529  0.0790473942620054
  0.3312627275606133  0.2907652587161778  0.1922945919835968
  0.4251532939828309  0.3376642543399555  0.0187033329312811
  0.2547377036544276  0.3769605022334659  0.1449759557653394
  0.2787275615434268  0.2646270552017072  0.9998655160058547
  0.3604426640416065  0.3030128178747589  0.1128597786308774
  0.6043095238722103  0.4271553382981494  0.0427420681489110
  0.6818210712583266  0.4659669703577762  0.1668892609474000
  0.4983451325734052  0.2493617170104585  0.0759035433177004
  0.5802412798109913  0.2900804105155714  0.1886976751492071
  0.6767677816581852  0.3382723599235788  0.0192689301684936
  0.5040233909633258  0.3767139321798894  0.1414737858392670
  0.5277297070067348  0.2637774527486059  0.9965845896835575
  0.6108431863894239  0.3052190439888562  0.1092851981086724
  0.8547545597293222  0.4272437150828381  0.0455633777315327
  0.9325523235780722  0.4660436520054603  0.1693122440330868
  0.7480734690481796  0.2490562699406880  0.0776166460317356
  0.8304517877467674  0.2902071396269719  0.1905706838256407
  0.9264938852151161  0.3380735720056123  0.0205553949071700
  0.7544709117035282  0.3772163059823797  0.1434118117257412
  0.7788410787172495  0.2641991562968542  0.9984345304804592
  0.8608999873171115  0.3053832933563427  0.1113359168415826
  0.1046295713057575  0.6770536396648268  0.0461088856989775
  0.1830147416280852  0.7164344392030202  0.1696751909236980
  0.9982669256517838  0.4988639945146289  0.0785316953108577
  0.0806330209770323  0.5402933110997381  0.1912705021555325
  0.1761655206156121  0.5876910007981024  0.0207320735411543
  0.0042788948360339  0.6268975182920968  0.1443473892517346
  0.0285937921313533  0.5139678691262120  0.9992118863243391
  0.1108327097920281  0.5553582807947421  0.1119740309563184
  0.3550183913892795  0.6776117127241719  0.0453810805426613
  0.4335429413273673  0.7180247789426986  0.1680145480967994
  0.2478244838817361  0.4984206750046880  0.0787669981461150
  0.3306845432985810  0.5393538435786311  0.1917064231911709
  0.4251024195510951  0.5874067882050724  0.0183050166155994
  0.2544305980066426  0.6269832722702091  0.1447163966420248
  0.2782230565929211  0.5134148687673132  0.9993966143095463
  0.3599938531246281  0.5576673783948962  0.1116504427551419
  0.6042907814168217  0.6771999554450474  0.0427409597588664
  0.6817157509635763  0.7157543813751346  0.1665570487399819
  0.4987378912753897  0.4994764948479684  0.0750488482277092
  0.5792459336283642  0.5404492298161330  0.1873115888895924
  0.6768407245319210  0.5884439822033656  0.0187188864321897
  0.5037734406688941  0.6279761408085136  0.1409257810749409
  0.5276082452405362  0.5136554670442877  0.9958335472933584
  0.6109858494727973  0.5553273294172669  0.1084538815349489
  0.8546913062986619  0.6772516302988905  0.0453504850419151
  0.9324580236739806  0.7159691473343912  0.1692894274313446
  0.7480791386088086  0.4990279936442903  0.0773403728974955
  0.8302136769743740  0.5399716782665038  0.1903476824537691
  0.9265493923489601  0.5881177445235295  0.0204675809985275
  0.7544549293193441  0.6272072922324909  0.1431892661348328
  0.7789255216715034  0.5140898008366577  0.9981684091117700
  0.8607366480971592  0.5553338975439033  0.1111423429785887
  0.1046751816407792  0.9272410119829857  0.0461643495062134
  0.1830511900376308  0.9661437604858563  0.1697569081640609
  0.9981880339398757  0.7488769537569482  0.0784577502310242
  0.0806591856652972  0.7901092315967375  0.1911788116734954
  0.1762437645662445  0.8379791336832980  0.0208388403114341
  0.0042455352700941  0.8768555046990443  0.1443540354605659
  0.0285930109410586  0.7641934315590007  0.9991850083447034
  0.1107696416772939  0.8052482889214971  0.1119187599954046
  0.3549682250555790  0.9275250280296277  0.0453715700940762
  0.4339698023997087  0.9670907764250813  0.1687303895691059
  0.2481962460750182  0.7485422670534376  0.0782515099509169
  0.3316018495280346  0.7909478936584264  0.1904108499465735
  0.4253334290086386  0.8377255318358010  0.0182420899021736
  0.2543604701600444  0.8769417437367224  0.1441811297236342
  0.2778501983322812  0.7639237253813818  0.9987991283033679
  0.3606158823620333  0.8059748397198163  0.1109405890912711
  0.6042307326149299  0.9271233912894417  0.0430087165834792
  0.6822858372728291  0.9662215934991565  0.1676247539909426
  0.4982830937731109  0.7494977837500230  0.0754822167689255
  0.5799779294378880  0.7910072723814565  0.1884354159880530
  0.6767832679680055  0.8385272017223215  0.0192064772523111
  0.5040581842817673  0.8777082293334857  0.1409311929705765
  0.5278252936029162  0.7638216517341760  0.9962678101149720
  0.6109145245346497  0.8059008284862017  0.1092382825324165
  0.8547661233792567  0.9272868357583732  0.0455904685700119
  0.9325692525832707  0.9659466930777967  0.1694050007383794
  0.7481228069008026  0.7489972674178276  0.0773316364692960
  0.8300889176846766  0.7901092896165736  0.1904064868120727
  0.9265734232423881  0.8382332778420718  0.0204807219378296
  0.7544752363902774  0.8772240264965063  0.1433858843341724
  0.7789604865353041  0.7646488533757534  0.9981335494548915
  0.8607440344191986  0.8051399509510304  0.1111535477550873
  0.0232807101280983  0.0112548470922533  0.1454133596068843
  0.2010184769722869  0.2253492290525969  0.0298884043592764
  0.0859200226666843  0.0428641997268357  0.0452357627456976
  0.1583452600082964  0.0788912839757714  0.1611448130168611
  0.2735853287674459  0.0114249465930385  0.1452237774522516
  0.4502363823983657  0.2252389925990386  0.0270228989338221
  0.3358965795194209  0.0430479081806396  0.0447158344893239
  0.4088459086827498  0.0790757704123450  0.1601725590435805
  0.5234058105815222  0.0121878676370528  0.1424497301008358
  0.7011147281924579  0.2255051598082431  0.0283477102531933
  0.5854220887734627  0.0427716733938723  0.0422056539817746
  0.6581976850405269  0.0790641744497194  0.1583900782698748
  0.7732495254235445  0.0115320726323631  0.1444956150271466
  0.9508946411875741  0.2253323448621316  0.0294399407467978
  0.8359058743647125  0.0428964616754541  0.0445413028879642
  0.9081235243134671  0.0786733571357914  0.1605493179497728
  0.0232495863430700  0.2613368926330395  0.1454050727719789
  0.2006407859488064  0.4749100096953782  0.0296104916326456
  0.0858393867885923  0.2925894921808094  0.0452344894156838
  0.1582657855415945  0.3283252283019635  0.1611140225597367
  0.2741125077757474  0.2614735308490026  0.1459809141012371
  0.4501809329158775  0.4749491874273843  0.0263932269729352
  0.3360812335240908  0.2930580967580241  0.0458527827356221
  0.4098530270164318  0.3295043998846836  0.1618765990682931
  0.5230790798437752  0.2613841071918728  0.1425730805220553
  0.7011407222136299  0.4754443070798260  0.0280435610179310
  0.5854429386670432  0.2927289470531775  0.0423159837243148
  0.6579923843918891  0.3289956967697165  0.1584895266951065
  0.7732427986673329  0.2616609557897647  0.1444822415907439
  0.9509039225388491  0.4752493844942904  0.0293835764539310
  0.8359203274290508  0.2928483803100761  0.0445088902618593
  0.9080672321106036  0.3287673730015044  0.1605262538064949
  0.0231938818826052  0.5114613771111749  0.1453391962330741
  0.2005550939911203  0.7250139916003704  0.0293678046445933
  0.0858405819197330  0.5426436941285644  0.0451727626910241
  0.1581979443558623  0.5790968160658423  0.1610619160294888
  0.2726284855762131  0.5108744462828056  0.1448328139289217
  0.4502665834771094  0.7252895321635791  0.0265947245861469
  0.3360973309685846  0.5430853334640204  0.0449769717657063
  0.4100256554066846  0.5816076647277839  0.1597014205388305
  0.5227406784493880  0.5115229123299230  0.1408166715344095
  0.7011060717526405  0.7256465527009297  0.0280170190271249
  0.5856872216868396  0.5428745958406651  0.0414419808234143
  0.6574274131335898  0.5786361785277450  0.1580725103597942
  0.7730953051520046  0.5116669264162539  0.1441976389242328
  0.9509767687339377  0.7253644141774345  0.0292972686346502
  0.8359066086890934  0.5428161167958834  0.0442926116731854
  0.9079143355655859  0.5787481869515076  0.1603635990203287
  0.0231610909998992  0.7613740032024410  0.1453124111439976
  0.2006609840952862  0.9752675489268370  0.0295648696961734
  0.0859245218596882  0.7928936538294522  0.0451400644285727
  0.1582478930254396  0.8289423147105737  0.1609674859671202
  0.2733676426472442  0.7615160426029988  0.1449165830598744
  0.4502811537176470  0.9753324608895539  0.0267590236751900
  0.3358713075786213  0.7930249531554310  0.0443097504536354
  0.4087679050892490  0.8301728477244410  0.1596313908530789
  0.5233771893533330  0.7629158330864314  0.1421693225022835
  0.7010838620527693  0.9755873269591220  0.0283509670678299
  0.5854572128834405  0.7927972255838469  0.0421001615132752
  0.6579736226687984  0.8289011694405914  0.1586520257332467
  0.7730735746448545  0.7613805420228843  0.1440941312168675
  0.9510052003009264  0.9754494894090868  0.0294021041107015
  0.8359325347209108  0.7929395707522104  0.0442753004284810
  0.9079089214555438  0.8286288815615634  0.1604091478023904
  0.5874648641670177  0.7334226600038534  0.2946781117922868
  0.4284459643774738  0.3773023264023578  0.2584058663561208
  0.4585934014465920  0.6947653445294861  0.2983154013049329
  0.5547591839144559  0.4148592968460463  0.2778093164883160
  0.3886013640102206  0.5362648908438103  0.2529622965626501
  0.6446935347861498  0.5972899891198296  0.2910728912956344
  0.5042642521002634  0.5519143380403051  0.2873580518106067
  0.6791063183860473  0.4466544830900645  0.2940239392180644
  0.7142990823147244  0.7797813329319396  0.2843975591311931
 
  0.00000000E+00  0.00000000E+00  0.00000000E+00
  0.00000000E+00  0.00000000E+00  0.00000000E+00
  0.00000000E+00  0.00000000E+00  0.00000000E+00
  0.00000000E+00  0.00000000E+00  0.00000000E+00
  0.00000000E+00  0.00000000E+00  0.00000000E+00
  0.00000000E+00  0.00000000E+00  0.00000000E+00
  0.00000000E+00  0.00000000E+00  0.00000000E+00
  0.00000000E+00  0.00000000E+00  0.00000000E+00
  0.00000000E+00  0.00000000E+00  0.00000000E+00
  0.00000000E+00  0.00000000E+00  0.00000000E+00
  0.00000000E+00  0.00000000E+00  0.00000000E+00
  0.00000000E+00  0.00000000E+00  0.00000000E+00
  0.00000000E+00  0.00000000E+00  0.00000000E+00
  0.00000000E+00  0.00000000E+00  0.00000000E+00
  0.00000000E+00  0.00000000E+00  0.00000000E+00
  0.00000000E+00  0.00000000E+00  0.00000000E+00
  0.00000000E+00  0.00000000E+00  0.00000000E+00
  0.00000000E+00  0.00000000E+00  0.00000000E+00
  0.00000000E+00  0.00000000E+00  0.00000000E+00
  0.00000000E+00  0.00000000E+00  0.00000000E+00
  0.00000000E+00  0.00000000E+00  0.00000000E+00
  0.00000000E+00  0.00000000E+00  0.00000000E+00
  0.00000000E+00  0.00000000E+00  0.00000000E+00
  0.00000000E+00  0.00000000E+00  0.00000000E+00
  0.00000000E+00  0.00000000E+00  0.00000000E+00
  0.00000000E+00  0.00000000E+00  0.00000000E+00
  0.00000000E+00  0.00000000E+00  0.00000000E+00
  0.00000000E+00  0.00000000E+00  0.00000000E+00
  0.00000000E+00  0.00000000E+00  0.00000000E+00
  0.00000000E+00  0.00000000E+00  0.00000000E+00
  0.00000000E+00  0.00000000E+00  0.00000000E+00
  0.00000000E+00  0.00000000E+00  0.00000000E+00
  0.00000000E+00  0.00000000E+00  0.00000000E+00
  0.00000000E+00  0.00000000E+00  0.00000000E+00
  0.00000000E+00  0.00000000E+00  0.00000000E+00
  0.00000000E+00  0.00000000E+00  0.00000000E+00
  0.00000000E+00  0.00000000E+00  0.00000000E+00
  0.00000000E+00  0.00000000E+00  0.00000000E+00
  0.00000000E+00  0.00000000E+00  0.00000000E+00
  0.00000000E+00  0.00000000E+00  0.00000000E+00
  0.00000000E+00  0.00000000E+00  0.00000000E+00
  0.00000000E+00  0.00000000E+00  0.00000000E+00
  0.00000000E+00  0.00000000E+00  0.00000000E+00
  0.00000000E+00  0.00000000E+00  0.00000000E+00
  0.00000000E+00  0.00000000E+00  0.00000000E+00
  0.00000000E+00  0.00000000E+00  0.00000000E+00
  0.00000000E+00  0.00000000E+00  0.00000000E+00
  0.00000000E+00  0.00000000E+00  0.00000000E+00
  0.00000000E+00  0.00000000E+00  0.00000000E+00
  0.00000000E+00  0.00000000E+00  0.00000000E+00
  0.00000000E+00  0.00000000E+00  0.00000000E+00
  0.00000000E+00  0.00000000E+00  0.00000000E+00
  0.00000000E+00  0.00000000E+00  0.00000000E+00
  0.00000000E+00  0.00000000E+00  0.00000000E+00
  0.00000000E+00  0.00000000E+00  0.00000000E+00
  0.00000000E+00  0.00000000E+00  0.00000000E+00
  0.00000000E+00  0.00000000E+00  0.00000000E+00
  0.00000000E+00  0.00000000E+00  0.00000000E+00
  0.00000000E+00  0.00000000E+00  0.00000000E+00
  0.00000000E+00  0.00000000E+00  0.00000000E+00
  0.00000000E+00  0.00000000E+00  0.00000000E+00
  0.00000000E+00  0.00000000E+00  0.00000000E+00
  0.00000000E+00  0.00000000E+00  0.00000000E+00
  0.00000000E+00  0.00000000E+00  0.00000000E+00
  0.00000000E+00  0.00000000E+00  0.00000000E+00
  0.00000000E+00  0.00000000E+00  0.00000000E+00
  0.00000000E+00  0.00000000E+00  0.00000000E+00
  0.00000000E+00  0.00000000E+00  0.00000000E+00
  0.00000000E+00  0.00000000E+00  0.00000000E+00
  0.00000000E+00  0.00000000E+00  0.00000000E+00
  0.00000000E+00  0.00000000E+00  0.00000000E+00
  0.00000000E+00  0.00000000E+00  0.00000000E+00
  0.00000000E+00  0.00000000E+00  0.00000000E+00
  0.00000000E+00  0.00000000E+00  0.00000000E+00
  0.00000000E+00  0.00000000E+00  0.00000000E+00
  0.00000000E+00  0.00000000E+00  0.00000000E+00
  0.00000000E+00  0.00000000E+00  0.00000000E+00
  0.00000000E+00  0.00000000E+00  0.00000000E+00
  0.00000000E+00  0.00000000E+00  0.00000000E+00
  0.00000000E+00  0.00000000E+00  0.00000000E+00
  0.00000000E+00  0.00000000E+00  0.00000000E+00
  0.00000000E+00  0.00000000E+00  0.00000000E+00
  0.00000000E+00  0.00000000E+00  0.00000000E+00
  0.00000000E+00  0.00000000E+00  0.00000000E+00
  0.00000000E+00  0.00000000E+00  0.00000000E+00
  0.00000000E+00  0.00000000E+00  0.00000000E+00
  0.00000000E+00  0.00000000E+00  0.00000000E+00
  0.00000000E+00  0.00000000E+00  0.00000000E+00
  0.00000000E+00  0.00000000E+00  0.00000000E+00
  0.00000000E+00  0.00000000E+00  0.00000000E+00
  0.00000000E+00  0.00000000E+00  0.00000000E+00
  0.00000000E+00  0.00000000E+00  0.00000000E+00
  0.00000000E+00  0.00000000E+00  0.00000000E+00
  0.00000000E+00  0.00000000E+00  0.00000000E+00
  0.00000000E+00  0.00000000E+00  0.00000000E+00
  0.00000000E+00  0.00000000E+00  0.00000000E+00
  0.00000000E+00  0.00000000E+00  0.00000000E+00
  0.00000000E+00  0.00000000E+00  0.00000000E+00
  0.00000000E+00  0.00000000E+00  0.00000000E+00
  0.00000000E+00  0.00000000E+00  0.00000000E+00
  0.00000000E+00  0.00000000E+00  0.00000000E+00
  0.00000000E+00  0.00000000E+00  0.00000000E+00
  0.00000000E+00  0.00000000E+00  0.00000000E+00
  0.00000000E+00  0.00000000E+00  0.00000000E+00
  0.00000000E+00  0.00000000E+00  0.00000000E+00
  0.00000000E+00  0.00000000E+00  0.00000000E+00
  0.00000000E+00  0.00000000E+00  0.00000000E+00
  0.00000000E+00  0.00000000E+00  0.00000000E+00
  0.00000000E+00  0.00000000E+00  0.00000000E+00
  0.00000000E+00  0.00000000E+00  0.00000000E+00
  0.00000000E+00  0.00000000E+00  0.00000000E+00
  0.00000000E+00  0.00000000E+00  0.00000000E+00
  0.00000000E+00  0.00000000E+00  0.00000000E+00
  0.00000000E+00  0.00000000E+00  0.00000000E+00
  0.00000000E+00  0.00000000E+00  0.00000000E+00
  0.00000000E+00  0.00000000E+00  0.00000000E+00
  0.00000000E+00  0.00000000E+00  0.00000000E+00
  0.00000000E+00  0.00000000E+00  0.00000000E+00
  0.00000000E+00  0.00000000E+00  0.00000000E+00
  0.00000000E+00  0.00000000E+00  0.00000000E+00
  0.00000000E+00  0.00000000E+00  0.00000000E+00
  0.00000000E+00  0.00000000E+00  0.00000000E+00
  0.00000000E+00  0.00000000E+00  0.00000000E+00
  0.00000000E+00  0.00000000E+00  0.00000000E+00
  0.00000000E+00  0.00000000E+00  0.00000000E+00
  0.00000000E+00  0.00000000E+00  0.00000000E+00
  0.00000000E+00  0.00000000E+00  0.00000000E+00
  0.00000000E+00  0.00000000E+00  0.00000000E+00
  0.00000000E+00  0.00000000E+00  0.00000000E+00
  0.00000000E+00  0.00000000E+00  0.00000000E+00
  0.00000000E+00  0.00000000E+00  0.00000000E+00
  0.00000000E+00  0.00000000E+00  0.00000000E+00
  0.00000000E+00  0.00000000E+00  0.00000000E+00
  0.00000000E+00  0.00000000E+00  0.00000000E+00
  0.00000000E+00  0.00000000E+00  0.00000000E+00
  0.00000000E+00  0.00000000E+00  0.00000000E+00
  0.00000000E+00  0.00000000E+00  0.00000000E+00
  0.00000000E+00  0.00000000E+00  0.00000000E+00
  0.00000000E+00  0.00000000E+00  0.00000000E+00
  0.00000000E+00  0.00000000E+00  0.00000000E+00
  0.00000000E+00  0.00000000E+00  0.00000000E+00
  0.00000000E+00  0.00000000E+00  0.00000000E+00
  0.00000000E+00  0.00000000E+00  0.00000000E+00
  0.00000000E+00  0.00000000E+00  0.00000000E+00
  0.00000000E+00  0.00000000E+00  0.00000000E+00
  0.00000000E+00  0.00000000E+00  0.00000000E+00
  0.00000000E+00  0.00000000E+00  0.00000000E+00
  0.00000000E+00  0.00000000E+00  0.00000000E+00
  0.00000000E+00  0.00000000E+00  0.00000000E+00
  0.00000000E+00  0.00000000E+00  0.00000000E+00
  0.00000000E+00  0.00000000E+00  0.00000000E+00
  0.00000000E+00  0.00000000E+00  0.00000000E+00
  0.00000000E+00  0.00000000E+00  0.00000000E+00
  0.00000000E+00  0.00000000E+00  0.00000000E+00
  0.00000000E+00  0.00000000E+00  0.00000000E+00
  0.00000000E+00  0.00000000E+00  0.00000000E+00
  0.00000000E+00  0.00000000E+00  0.00000000E+00
  0.00000000E+00  0.00000000E+00  0.00000000E+00
  0.00000000E+00  0.00000000E+00  0.00000000E+00
  0.00000000E+00  0.00000000E+00  0.00000000E+00
  0.00000000E+00  0.00000000E+00  0.00000000E+00
  0.00000000E+00  0.00000000E+00  0.00000000E+00
  0.00000000E+00  0.00000000E+00  0.00000000E+00
  0.00000000E+00  0.00000000E+00  0.00000000E+00
  0.00000000E+00  0.00000000E+00  0.00000000E+00
  0.00000000E+00  0.00000000E+00  0.00000000E+00
  0.00000000E+00  0.00000000E+00  0.00000000E+00
  0.00000000E+00  0.00000000E+00  0.00000000E+00
  0.00000000E+00  0.00000000E+00  0.00000000E+00
  0.00000000E+00  0.00000000E+00  0.00000000E+00
  0.00000000E+00  0.00000000E+00  0.00000000E+00
  0.00000000E+00  0.00000000E+00  0.00000000E+00
  0.00000000E+00  0.00000000E+00  0.00000000E+00
  0.00000000E+00  0.00000000E+00  0.00000000E+00
  0.00000000E+00  0.00000000E+00  0.00000000E+00
  0.00000000E+00  0.00000000E+00  0.00000000E+00
  0.00000000E+00  0.00000000E+00  0.00000000E+00
  0.00000000E+00  0.00000000E+00  0.00000000E+00
  0.00000000E+00  0.00000000E+00  0.00000000E+00
  0.00000000E+00  0.00000000E+00  0.00000000E+00
  0.00000000E+00  0.00000000E+00  0.00000000E+00
  0.00000000E+00  0.00000000E+00  0.00000000E+00
  0.00000000E+00  0.00000000E+00  0.00000000E+00
  0.00000000E+00  0.00000000E+00  0.00000000E+00
  0.00000000E+00  0.00000000E+00  0.00000000E+00
  0.00000000E+00  0.00000000E+00  0.00000000E+00
  0.00000000E+00  0.00000000E+00  0.00000000E+00
  0.00000000E+00  0.00000000E+00  0.00000000E+00
  0.00000000E+00  0.00000000E+00  0.00000000E+00
  0.00000000E+00  0.00000000E+00  0.00000000E+00
  0.00000000E+00  0.00000000E+00  0.00000000E+00
  0.00000000E+00  0.00000000E+00  0.00000000E+00
  0.00000000E+00  0.00000000E+00  0.00000000E+00
  0.00000000E+00  0.00000000E+00  0.00000000E+00
  0.00000000E+00  0.00000000E+00  0.00000000E+00
  0.00000000E+00  0.00000000E+00  0.00000000E+00
  0.00000000E+00  0.00000000E+00  0.00000000E+00
  0.00000000E+00  0.00000000E+00  0.00000000E+00
  0.00000000E+00  0.00000000E+00  0.00000000E+00
  0.00000000E+00  0.00000000E+00  0.00000000E+00
  0.00000000E+00  0.00000000E+00  0.00000000E+00
